NAME : tsp_175_sol.txt
COMMENT : OR-Tools Guided Local Search
TYPE : TOUR
DIMENSION : 50
COST : 6188
STATUS : ROUTING_SUCCESS
GAP : 0.00% (Reference Solution)
TOUR_SECTION
1
21
27
8
30
24
16
7
37
28
46
9
32
38
14
34
23
36
44
12
17
11
5
20
48
18
47
29
35
50
2
26
15
13
49
42
3
45
22
10
43
33
41
6
4
40
19
25
39
31
-1
